# Objective value = 60
WA1n 0
WA1p 0
WA2n 0
WA2p 1
WB1n 0
WB1p 0
WB2n 0
WB2p 1
WC1n 1
WC1p 0
WD1n 0
WD1p 1
WE1n 0
WE1p 1
WF1n 3
WF1p 0
WF2n 1
WF2p 0
WG1n 4
WG1p 0
WG2n 1
WG2p 0
WH1n 0
WH1p 4
WH2n 0
WH2p 1
WI1n 12
WI1p 0
WI2n 1
WI2p 0
WJ1n 0
WJ1p 12
WJ2n 0
WJ2p 1
WT1n 0
WT1p 8
5 7
a 0
b 1
c 0
d 1
e 0
f 1
g 1
h 0
i 0
j 0
k 0
l 1
m 1
n 0
o 0
p 1
q 1
r 1
